(set-option :produce-models true)
(set-logic QF_UF)
(declare-fun p4() Bool)
(declare-fun p0() Bool)
(declare-fun p5() Bool)
(declare-fun p8() Bool)
(declare-fun p3() Bool)
(declare-fun p16() Bool)
(declare-fun p6() Bool)
(declare-fun p17() Bool)
(declare-fun p18() Bool)
(declare-fun p12() Bool)
(declare-fun p15() Bool)
(declare-fun p9() Bool)
(declare-fun p13() Bool)
(declare-fun p7() Bool)
(declare-fun p2() Bool)
(declare-fun p19() Bool)
(declare-fun p10() Bool)
(declare-fun p1() Bool)
(declare-fun p14() Bool)
(declare-fun p11() Bool)
(assert
(and (or (not p4) p0 p5) (or (not p8) p3 (not p16)) (or (not p6) (not p17) (not p18)) (or (not p12) (not p8) p15) (or (not p9) p4 p13) (or (not p3) (not p7) (not p2)) (or (not p17) (not p15) (not p19)) (or p16 p10 (not p7)) (or p17 p5 p10) (or (not p16) p18 (not p16)) (or (not p1) (not p1) p17) (or (not p1) (not p15) (not p18)) (or p6 (not p1) p9) (or p15 (not p15) (not p12)) (or p4 p9 (not p7)) (or p17 (not p4) (not p3)) (or p5 p6 (not p13)) (or (not p8) p4 (not p13)) (or (not p12) (not p5) (not p12)) (or p12 p4 (not p9)) (or p3 p12 p16) (or (not p3) (not p6) (not p19)) (or (not p12) (not p14) (not p17)) (or (not p9) (not p3) (not p17)) (or p13 p15 (not p4)) (or p15 (not p18) p16) (or (not p16) (not p9) p1) (or (not p15) (not p6) p14) (or (not p7) p9 p4) (or p5 (not p10) (not p3)) (or p2 (not p2) (not p7)) (or (not p10) p8 (not p17)) (or (not p16) p9 p11) (or p3 (not p16) p2) (or p16 (not p8) (not p3)) (or (not p3) (not p18) p12) (or (not p19) (not p19) (not p3)) (or p3 (not p5) p5) (or p14 (not p3) (not p10)) (or (not p4) (not p11) (not p18)) (or (not p2) (not p12) (not p10)) (or p6 p10 p6) (or (not p9) p2 (not p17)) (or (not p6) p2 (not p10)) (or p16 (not p15) p5) (or (not p18) (not p1) (not p7)) (or (not p7) (not p16) (not p10)) (or (not p5) p12 (not p5)) (or (not p1) (not p19) p2) (or (not p1) (not p3) p4) (or p18 (not p6) p2) (or (not p10) p16 (not p9)) (or (not p6) (not p13) p13) (or (not p11) (not p19) (not p6)) (or p16 p11 (not p7)) (or (not p8) p2 p13) (or p7 (not p5) (not p12)) (or p4 p6 (not p9)) (or p4 (not p16) (not p9)) (or (not p16) (not p17) (not p15)) (or (not p1) p12 (not p19)) (or p6 p13 p7) (or p18 (not p3) p15) (or (not p0) p3 (not p1)) (or (not p4) (not p16) (not p7)) (or (not p9) (not p17) (not p9)) (or p10 p3 (not p12)) (or p10 p4 p3) (or (not p10) (not p8) p2) (or p10 p9 (not p3)) (or p19 (not p18) (not p10)) (or p10 p6 (not p2)) (or (not p7) (not p17) (not p16)) (or (not p5) p15 (not p4)) (or p16 p6 p8) (or p14 (not p0) p7) (or (not p9) p14 (not p2)) (or p0 p0 p15) (or p12 (not p18) (not p15)) (or p19 (not p0) (not p11)) (or (not p5) p12 (not p15)) (or (not p2) p1 (not p2)) (or p6 p1 (not p2)) (or p5 p11 p3) (or p3 p9 (not p17)) (or (not p12) (not p16) (not p14)) (or p1 p18 p7))
)
(check-sat)
(get-model)
